
Welcome to IBM(R) ILOG(R) CPLEX(R) Interactive Optimizer 22.1.1.0
  with Simplex, Mixed Integer & Barrier Optimizers
5725-A06 5725-A29 5724-Y48 5724-Y49 5724-Y54 5724-Y55 5655-Y21
Copyright IBM Corp. 1988, 2022.  All Rights Reserved.

Type 'help' for a list of available commands.
Type 'help' followed by a command name for more
information on commands.

CPLEX> Selected objective sense:  MINIMIZE
Selected objective  name:  00000000
Selected RHS        name:  RHS1
Selected bound      name:  BOUND
Problem 'ee.mps' read.
Read time = 0.01 sec. (3.14 ticks)
CPLEX> New value for time limit in seconds: 7200
CPLEX> New value for parallel optimization mode: -1
CPLEX> New value for default parallel thread count: 40
CPLEX> New value for mixed integer optimality gap tolerance: 1e-13
CPLEX> Version identifier: 22.1.1.0 | 2022-11-28 | 9160aff4d
CPXPARAM_Threads                                 40
CPXPARAM_Parallel                                -1
CPXPARAM_TimeLimit                               7200
CPXPARAM_MIP_Tolerances_MIPGap                   1e-13
Found incumbent of value 0.000000 after 0.00 sec. (0.31 ticks)
Tried aggregator 2 times.
MIP Presolve eliminated 180 rows and 2745 columns.
MIP Presolve modified 5862 coefficients.
Aggregator did 713 substitutions.
Reduced MIP has 3623 rows, 7739 columns, and 28643 nonzeros.
Reduced MIP has 7739 binaries, 0 generals, 0 SOSs, and 0 indicators.
Presolve time = 0.07 sec. (68.56 ticks)
Probing time = 0.03 sec. (5.29 ticks)
Tried aggregator 1 time.
Detecting symmetries...
Reduced MIP has 3623 rows, 7739 columns, and 28643 nonzeros.
Reduced MIP has 7739 binaries, 0 generals, 0 SOSs, and 0 indicators.
Presolve time = 0.03 sec. (21.82 ticks)
Probing time = 0.02 sec. (5.09 ticks)
Clique table members: 18551.
MIP emphasis: balance optimality and feasibility.
MIP search method: dynamic search.
Parallel mode: opportunistic, using up to 40 threads.
Root relaxation solution time = 0.06 sec. (50.64 ticks)

        Nodes                                         Cuts/
   Node  Left     Objective  IInf  Best Integer    Best Bound    ItCnt     Gap

*     0+    0                            0.0000  -1.31000e+13              --- 
*     0+    0                      -5.50000e+12  -1.31000e+13           138.18%
      0     0  -1.30900e+13    19  -5.50000e+12  -1.30900e+13     1049  138.00%
*     0+    0                      -1.30900e+13  -1.30900e+13             0.00%
      0     0  -1.30900e+13    81  -1.30900e+13      Cuts: 37     1342    0.00%
*     0+    0                      -1.30900e+13  -1.30900e+13             0.00%
      0     0  -1.30900e+13   104  -1.30900e+13      Cuts: 51     1453    0.00%
*     0+    0                      -1.30900e+13  -1.30900e+13             0.00%

Repeating presolve.
Tried aggregator 2 times.
MIP Presolve eliminated 1480 rows and 3470 columns.
MIP Presolve modified 44 coefficients.
Aggregator did 129 substitutions.
Reduced MIP has 2014 rows, 4131 columns, and 14750 nonzeros.
Reduced MIP has 4131 binaries, 0 generals, 0 SOSs, and 0 indicators.
Presolve time = 0.05 sec. (50.13 ticks)
Probing fixed 57 vars, tightened 0 bounds.
Probing time = 0.04 sec. (15.97 ticks)
Tried aggregator 2 times.
MIP Presolve eliminated 57 rows and 81 columns.
Aggregator did 10 substitutions.
Reduced MIP has 1947 rows, 4038 columns, and 14373 nonzeros.
Reduced MIP has 4038 binaries, 0 generals, 0 SOSs, and 0 indicators.
Presolve time = 0.03 sec. (23.59 ticks)
Probing time = 0.03 sec. (8.44 ticks)
Tried aggregator 1 time.
Detecting symmetries...
MIP Presolve eliminated 2 rows and 3 columns.
Reduced MIP has 1945 rows, 4035 columns, and 14367 nonzeros.
Reduced MIP has 4035 binaries, 0 generals, 0 SOSs, and 0 indicators.
Presolve time = 0.02 sec. (16.56 ticks)
Represolve time = 0.19 sec. (132.77 ticks)
Probing time = 0.01 sec. (3.73 ticks)
Clique table members: 9682.
MIP emphasis: balance optimality and feasibility.
MIP search method: dynamic search.
Parallel mode: opportunistic, using up to 40 threads.
Root relaxation solution time = 0.04 sec. (23.68 ticks)

        Nodes                                         Cuts/
   Node  Left     Objective  IInf  Best Integer    Best Bound    ItCnt     Gap

*     0+    0                      -1.30900e+13  -1.30900e+13             0.00%
      0     0  -1.30900e+13    48  -1.30900e+13  -1.30900e+13     2312    0.00%
      0     0  -1.30900e+13   102  -1.30900e+13      Cuts: 64     2441    0.00%
      0     0  -1.30900e+13    97  -1.30900e+13      Cuts: 87     2578    0.00%
      0     0  -1.30900e+13   146  -1.30900e+13      Cuts: 49     2691    0.00%
      0     2  -1.30900e+13   125  -1.30900e+13  -1.30900e+13     2691    0.00%
Elapsed time = 1.62 sec. (1052.21 ticks, tree = 0.02 MB, solutions = 5)
   1092   224  -1.30900e+13    43  -1.30900e+13  -1.30900e+13    39273    0.00%
*  2154   627      integral     0  -1.30900e+13  -1.30900e+13   155943    0.00%
   2491   670    infeasible        -1.30900e+13  -1.30900e+13   103002    0.00%
*  3470   546      integral     0  -1.30900e+13  -1.30900e+13   115666    0.00%
*  4281   608      integral     0  -1.30900e+13  -1.30900e+13   154068    0.00%
   4774   584  -1.30900e+13   147  -1.30900e+13  -1.30900e+13   142611    0.00%
   6936   780  -1.30900e+13    41  -1.30900e+13  -1.30900e+13   343544    0.00%
   8883   104        cutoff        -1.30900e+13  -1.30900e+13   393799    0.00%
   9792   433  -1.30900e+13    76  -1.30900e+13  -1.30900e+13   388167    0.00%
  10557   666  -1.30900e+13    28  -1.30900e+13  -1.30900e+13   372683    0.00%

GUB cover cuts applied:  1
Clique cuts applied:  21
Cover cuts applied:  631
Flow cuts applied:  11
Mixed integer rounding cuts applied:  12
Zero-half cuts applied:  13
Lift and project cuts applied:  17
Gomory fractional cuts applied:  17

Root node processing (before b&c):
  Real time             =    1.29 sec. (1052.39 ticks)
Parallel b&c, 40 threads:
  Real time             =    2.98 sec. (1829.00 ticks)
  Sync time (average)   =    0.79 sec.
  Wait time (average)   =    0.00 sec.
                          ------------
Total (root+branch&cut) =    4.26 sec. (2881.39 ticks)

Solution pool: 19 solutions saved.

MIP - Integer optimal solution:  Objective = -1.3089999991e+13
Solution time =    4.35 sec.  Iterations = 407720  Nodes = 10939
Deterministic time = 2881.42 ticks  (662.39 ticks/sec)

CPLEX> Solution 'p20' written to file 'ee.sol'.
CPLEX> 